Reading model...
...model read.
creating competitive generators file...
...competitive generators recorded.
Loading data...
.. real-time data read.
Compiling instance...
...instance created.
Creating Offer Mitigation (model will solve as dispatch if TRUE)...
...storage offer mitigation file created
Converting model to MPEC...
...converted
NOTE: initial MIP solve with only storage competitive to get feasible solution
Solving...

Welcome to IBM(R) ILOG(R) CPLEX(R) Interactive Optimizer 12.10.0.0
  with Simplex, Mixed Integer & Barrier Optimizers
5725-A06 5725-A29 5724-Y48 5724-Y49 5724-Y54 5724-Y55 5655-Y21
Copyright IBM Corp. 1988, 2019.  All Rights Reserved.

Type 'help' for a list of available commands.
Type 'help' followed by a command name for more
information on commands.

CPLEX> Logfile 'cplex.log' closed.
Logfile 'C:\Users\wenmi\Desktop\competitiveMPEC\logs\tmptbv_b5sw.cplex.log' open.
CPLEX> New value for parallel optimization mode: -1
CPLEX> New value for mixed integer optimality gap tolerance: 0.05
CPLEX> New value for feasibility tolerance: 1e-09
CPLEX> New value for deterministic time limit in ticks: 100000
CPLEX> Problem 'C:\Users\wenmi\Desktop\competitiveMPEC\logs\tmpahv_adfp.pyomo.lp' read.
Read time = 0.31 sec. (28.39 ticks)
CPLEX> Problem name         : C:\Users\wenmi\Desktop\competitiveMPEC\logs\tmpahv_adfp.pyomo.lp
Objective sense      : Maximize
Variables            :  107783  [Nneg: 1,  Box: 44058,  Free: 8928,
                                 Binary: 54796]
Objective nonzeros   :   17376
Linear constraints   :  246903  [Less: 82866,  Greater: 118424,  Equal: 45613]
  Nonzeros           :  618268
  RHS nonzeros       :  134878

Variables            : Min LB: -5000.000        Max UB: 1000000.       
Objective nonzeros   : Min   : 0.008333333      Max   : 208.3333       
Linear constraints   :
  Nonzeros           : Min   : 0.008333333      Max   : 1000000.       
  RHS nonzeros       : Min   : 0.008333333      Max   : 1000000.       
CPLEX> Version identifier: 12.10.0.0 | 2019-11-26 | 843d4de2ae
CPXPARAM_Parallel                                -1
CPXPARAM_Simplex_Tolerances_Feasibility          1.0000000000000001e-09
CPXPARAM_DetTimeLimit                            100000
CPXPARAM_MIP_Tolerances_MIPGap                   0.050000000000000003
Tried aggregator 3 times.
MIP Presolve eliminated 182783 rows and 42548 columns.
MIP Presolve added 5999 rows and 0 columns.
MIP Presolve modified 49702 coefficients.
Aggregator did 25715 substitutions.
Reduced MIP has 44404 rows, 37888 columns, and 127350 nonzeros.
Reduced MIP has 14873 binaries, 0 generals, 0 SOSs, and 0 indicators.
Presolve time = 0.34 sec. (344.88 ticks)
Probing fixed 894 vars, tightened 10659 bounds.
Probing time = 0.13 sec. (30.34 ticks)
Tried aggregator 2 times.
Detecting symmetries...
MIP Presolve eliminated 1982 rows and 1790 columns.
MIP Presolve modified 14035 coefficients.
Aggregator did 96 substitutions.
Reduced MIP has 42326 rows, 36002 columns, and 121308 nonzeros.
Reduced MIP has 13978 binaries, 0 generals, 0 SOSs, and 0 indicators.
Presolve time = 0.14 sec. (197.64 ticks)
Probing fixed 1 vars, tightened 4063 bounds.
Probing time = 0.33 sec. (62.54 ticks)
Clique table members: 76696.
MIP emphasis: balance optimality and feasibility.
MIP search method: dynamic search.
Parallel mode: opportunistic, using up to 16 threads.
Root relaxation solution time = 0.59 sec. (1514.28 ticks)

        Nodes                                         Cuts/
   Node  Left     Objective  IInf  Best Integer    Best Bound    ItCnt     Gap

      0     0        0.0000   249                      0.0000     6466         
*     0+    0                            0.0000        0.0000             0.00%

Root node processing (before b&c):
  Real time             =    2.05 sec. (2602.80 ticks)
Parallel b&c, 16 threads:
  Real time             =    0.00 sec. (0.00 ticks)
  Sync time (average)   =    0.00 sec.
  Wait time (average)   =    0.00 sec.
                          ------------
Total (root+branch&cut) =    2.05 sec. (2602.80 ticks)

Solution pool: 1 solution saved.

MIP - Integer optimal, tolerance (0.05/1e-06):  Objective =  3.4260665416e-09
Current MIP best bound =  3.8065905983e-09 (gap = 3.80524e-10, 0.00%)
Solution time =    2.05 sec.  Iterations = 6466  Nodes = 0 (1)
Deterministic time = 2603.11 ticks  (1271.67 ticks/sec)

CPLEX> Incumbent solution written to file 'C:\Users\wenmi\Desktop\competitiveMPEC\logs\tmpqacmf4vd.cplex.sol'.
CPLEX> NOTE: no warmstart specified for MIP iteration, default behavior is true
NOTE: resolving with all competitive generators using storage-only solution to warmstart
Solving...

Welcome to IBM(R) ILOG(R) CPLEX(R) Interactive Optimizer 12.10.0.0
  with Simplex, Mixed Integer & Barrier Optimizers
5725-A06 5725-A29 5724-Y48 5724-Y49 5724-Y54 5724-Y55 5655-Y21
Copyright IBM Corp. 1988, 2019.  All Rights Reserved.

Type 'help' for a list of available commands.
Type 'help' followed by a command name for more
information on commands.

CPLEX> Logfile 'cplex.log' closed.
Logfile 'C:\Users\wenmi\Desktop\competitiveMPEC\logs\tmp6x326q_e.cplex.log' open.
CPLEX> New value for parallel optimization mode: -1
CPLEX> New value for mixed integer optimality gap tolerance: 0.05
CPLEX> New value for feasibility tolerance: 1e-09
CPLEX> New value for deterministic time limit in ticks: 100000
CPLEX> Problem 'C:\Users\wenmi\Desktop\competitiveMPEC\logs\tmpz9z1037b.pyomo.lp' read.
Read time = 0.33 sec. (28.43 ticks)
CPLEX> MIP start file 'C:\Users\wenmi\Desktop\competitiveMPEC\logs\tmp77vtnweo.cplex.mst' read.
CPLEX> Problem name         : C:\Users\wenmi\Desktop\competitiveMPEC\logs\tmpz9z1037b.pyomo.lp
Objective sense      : Maximize
Variables            :  109223  [Nneg: 1,  Box: 45498,  Free: 8928,
                                 Binary: 54796]
Objective nonzeros   :   18768
Linear constraints   :  246903  [Less: 82866,  Greater: 118424,  Equal: 45613]
  Nonzeros           :  618268
  RHS nonzeros       :  134878

Variables            : Min LB: -5000.000        Max UB: 1000000.       
Objective nonzeros   : Min   : 0.008333333      Max   : 208.3333       
Linear constraints   :
  Nonzeros           : Min   : 0.008333333      Max   : 1000000.       
  RHS nonzeros       : Min   : 0.008333333      Max   : 1000000.       
CPLEX> Version identifier: 12.10.0.0 | 2019-11-26 | 843d4de2ae
CPXPARAM_Parallel                                -1
CPXPARAM_Simplex_Tolerances_Feasibility          1.0000000000000001e-09
CPXPARAM_DetTimeLimit                            100000
CPXPARAM_MIP_Tolerances_MIPGap                   0.050000000000000003
1 of 1 MIP starts provided solutions.
MIP start 'm1' defined initial solution with objective 19723.1637.
Tried aggregator 3 times.
MIP Presolve eliminated 182783 rows and 43988 columns.
MIP Presolve added 5999 rows and 0 columns.
MIP Presolve modified 49702 coefficients.
Aggregator did 25715 substitutions.
Reduced MIP has 44404 rows, 37888 columns, and 127350 nonzeros.
Reduced MIP has 14873 binaries, 0 generals, 0 SOSs, and 0 indicators.
Presolve time = 0.34 sec. (345.62 ticks)
Probing fixed 894 vars, tightened 10659 bounds.
Probing time = 0.13 sec. (30.34 ticks)
Tried aggregator 2 times.
Detecting symmetries...
MIP Presolve eliminated 1982 rows and 1790 columns.
MIP Presolve modified 14035 coefficients.
Aggregator did 96 substitutions.
Reduced MIP has 42326 rows, 36002 columns, and 121308 nonzeros.
Reduced MIP has 13978 binaries, 0 generals, 0 SOSs, and 0 indicators.
Presolve time = 0.13 sec. (197.65 ticks)
Probing fixed 1 vars, tightened 4065 bounds.
Probing time = 0.30 sec. (56.53 ticks)
Clique table members: 76153.
MIP emphasis: balance optimality and feasibility.
MIP search method: dynamic search.
Parallel mode: opportunistic, using up to 16 threads.
Root relaxation solution time = 0.56 sec. (442.04 ticks)

        Nodes                                         Cuts/
   Node  Left     Objective  IInf  Best Integer    Best Bound    ItCnt     Gap

*     0+    0                        19723.1637   1.21441e+07              --- 
      0     0    19758.6158   305    19723.1637    19758.6158       37    0.18%

Root node processing (before b&c):
  Real time             =    2.06 sec. (1603.31 ticks)
Parallel b&c, 16 threads:
  Real time             =    0.00 sec. (0.00 ticks)
  Sync time (average)   =    0.00 sec.
  Wait time (average)   =    0.00 sec.
                          ------------
Total (root+branch&cut) =    2.06 sec. (1603.31 ticks)

Solution pool: 1 solution saved.

MIP - Integer optimal, tolerance (0.05/1e-06):  Objective =  1.9723163746e+04
Current MIP best bound =  1.9758615783e+04 (gap = 35.452, 0.18%)
Solution time =    2.09 sec.  Iterations = 37  Nodes = 0 (1)
Deterministic time = 1603.62 ticks  (765.82 ticks/sec)

CPLEX> Incumbent solution written to file 'C:\Users\wenmi\Desktop\competitiveMPEC\logs\tmpb6g_0a6w.cplex.sol'.
CPLEX> Exporting results... 
